10 10
 0 86 1 67 2 89 3 92 4 88 5 99 6 94 7 99 8 68 9 77
 0 92 1 82 2 94 3 50 4 75 5 72 6 69 7 94 8 66 9 63
 0 83 1 65 2 55 3 77 4 85 5 85 6 64 7 78 8 61 9 83
 0 76 1 61 2 68 3 54 4 99 5 66 6 75 7 94 8 67 9 63
 0 99 1 86 2 67 3 69 4 88 5 68 6 95 7 67 8 95 9 82
 0 88 1 99 2 80 3 79 4 81 5 64 6 66 7 69 8 80 9 62
 0 95 1 86 2 66 3 96 4 97 5 99 6 52 7 50 8 97 9 71
 0 62 1 71 2 51 3 82 4 98 5 94 6 73 7 85 8 95 9 79
 0 94 1 66 2 90 3 81 4 76 5 58 6 71 7 85 8 93 9 97
 0 59 1 82 2 96 3 50 4 81 5 59 6 58 7 56 8 67 9 96
